138 300 180 153 155 151 154 166 194 197 160 175 180 166 188 169 166 181 154 198 151 197 184 180 182 193 176 162 172 152 162 196 195 192 199 200 168 152 190 186 174 175 186 178 191 198 197 181 178 175 178 153 197 186 183 178 152 184 165 174 186 177 170 180 193 168 153 185 171 168 171 169 193 181 197 183 178 167 188 180 192 165 183 188 150 165 191 152 199 180 150 158 181 170 162 198 163 166 183 158 184 178 177 176 158 173 183 186 190 170 190 155 159 172 168 159 161 158 186 185 162 186 193 167 156 180 164 194 196 171 151 153 199 178 153 181 175 160 166 164 